
  32    4
  10   10   10   10

   0   0   0   0   0  14 2 9 11 21 22 23 24 25 26 27 28 29 30 31 
  10   1   0   1   1   3 20 19 3 
   8   0   2   7   3   1 4 
   5   5   4   4   0   1 5 
   3   4   5   6   0   2 18 6 
   1   8   0   2   8   1 7 
   5   0   4   5   5   3 17 16 8 
  10   2   6   3   0   1 10 
   3   6   0   6   4   2 18 13 
   9   2   4   0   4   1 12 
   3   5   0   2   4   1 12 
   3   1   2   3   0   1 13 
   5   0   5   4   6   1 14 
  10   4   3   0   2   1 15 
   4   0   4   3   5   1 32
   3   1   3   5   0   1 32
   4   5   0   3   3   1 32
   2   3   3   0   4   1 32
   2   5   4   3   0   1 32
   7   5   3   4   0   1 32
   4   4   4   6   0   1 32
   1   4   0   4   4   1 32
   7   6  10   8   0   1 32
   3   0   2   4   3   1 32
  10   4   7   0   3   1 32
   2   3   5   2   0   1 32
   1   5   3   2   0   1 32
   9   2   2   7   0   1 32
   9   6   5   0   5   1 32
   7   3   3   2   0   1 32
   7   6   3   4   0   1 32
   0   0   0   0   0   0 
